Geographic Exponential Decay
40 17 309 8 255 4 155 167 318 297 274 13 74 47 108 51 21 120 240 196 231 192 97 237 62 304 50 278 269 205 34 12 177 270 61 15 44 261 57 87 265
p edge 320 1267
e 0 304 24.0
e 0 220 2.0
e 0 17 50.0
e 0 256 5.0
e 1 93 3.0
e 1 11 6.0
e 1 44 63.0
e 1 45 2.0
e 2 19 1.0
e 3 83 1.0
e 4 97 35.0
e 4 191 52.0
e 4 232 94.0
e 4 263 41.0
e 4 273 70.0
e 4 56 94.0
e 4 23 62.0
e 4 218 85.0
e 4 209 6.0
e 4 64 7.0
e 4 63 39.0
e 4 39 41.0
e 4 306 84.0
e 4 222 94.0
e 4 180 46.0
e 4 204 23.0
e 4 266 50.0
e 4 103 55.0
e 4 224 78.0
e 4 219 3.0
e 4 66 26.0
e 4 301 62.0
e 4 53 28.0
e 4 96 77.0
e 4 98 37.0
e 4 60 40.0
e 4 70 92.0
e 5 188 1.0
e 5 54 3.0
e 6 42 7.0
e 6 245 1.0
e 6 304 23.0
e 6 34 13.0
e 7 175 6.0
e 8 222 20.0
e 8 1 64.0
e 8 287 40.0
e 8 308 89.0
e 8 245 47.0
e 8 184 69.0
e 8 128 37.0
e 8 180 97.0
e 8 73 52.0
e 8 94 24.0
e 8 285 35.0
e 8 312 66.0
e 8 238 81.0
e 8 187 88.0
e 8 123 87.0
e 8 296 15.0
e 8 15 51.0
e 8 63 89.0
e 8 246 88.0
e 8 278 64.0
e 8 146 82.0
e 8 116 71.0
e 8 70 26.0
e 8 289 11.0
e 8 3 85.0
e 8 188 69.0
e 8 197 30.0
e 9 137 1.0
e 9 49 4.0
e 10 311 29.0
e 10 280 17.0
e 10 241 1.0
e 10 207 12.0
e 10 134 13.0
e 10 128 40.0
e 10 74 66.0
e 10 86 13.0
e 10 191 2.0
e 10 298 14.0
e 10 155 91.0
e 10 189 17.0
e 10 7 2.0
e 10 100 2.0
e 11 157 11.0
e 11 288 8.0
e 11 268 3.0
e 12 45 89.0
e 12 303 25.0
e 12 11 76.0
e 12 18 82.0
e 12 313 74.0
e 12 3 30.0
e 12 28 90.0
e 12 259 77.0
e 12 6 82.0
e 12 85 96.0
e 12 10 51.0
e 12 5 26.0
e 12 274 29.0
e 12 23 64.0
e 12 84 18.0
e 12 209 99.0
e 12 79 13.0
e 12 185 52.0
e 12 17 17.0
e 12 210 71.0
e 12 137 41.0
e 12 193 39.0
e 12 145 33.0
e 12 180 67.0
e 12 91 91.0
e 12 204 36.0
e 12 92 28.0
e 13 226 29.0
e 13 243 17.0
e 13 186 31.0
e 13 105 36.0
e 13 192 99.0
e 13 195 99.0
e 13 10 88.0
e 13 146 13.0
e 13 62 23.0
e 13 216 71.0
e 13 96 15.0
e 13 99 66.0
e 13 238 36.0
e 13 98 39.0
e 13 252 74.0
e 13 28 15.0
e 13 161 19.0
e 13 51 24.0
e 13 3 17.0
e 13 201 69.0
e 13 16 66.0
e 13 38 90.0
e 13 156 71.0
e 13 176 66.0
e 13 49 4.0
e 13 222 58.0
e 13 262 19.0
e 14 83 5.0
e 14 93 9.0
e 15 14 44.0
e 15 119 9.0
e 15 182 81.0
e 15 144 95.0
e 15 30 80.0
e 15 306 80.0
e 15 60 50.0
e 15 45 4.0
e 15 314 28.0
e 15 61 6.0
e 15 114 39.0
e 15 145 57.0
e 15 23 91.0
e 15 77 83.0
e 15 84 59.0
e 15 223 94.0
e 15 128 79.0
e 15 83 56.0
e 15 170 87.0
e 15 6 85.0
e 15 126 14.0
e 15 131 52.0
e 15 172 98.0
e 15 276 13.0
e 15 51 90.0
e 15 206 24.0
e 17 300 19.0
e 17 264 30.0
e 17 258 35.0
e 17 156 13.0
e 17 9 20.0
e 17 236 20.0
e 17 265 20.0
e 17 169 4.0
e 17 238 17.0
e 17 1 66.0
e 17 214 45.0
e 17 33 50.0
e 17 269 87.0
e 17 80 27.0
e 17 159 98.0
e 17 305 26.0
e 17 192 52.0
e 17 303 21.0
e 17 226 62.0
e 17 288 67.0
e 17 218 4.0
e 17 111 22.0
e 17 277 44.0
e 17 314 66.0
e 17 141 73.0
e 19 182 4.0
e 20 236 7.0
e 21 300 1.0
e 21 257 92.0
e 21 299 60.0
e 21 120 17.0
e 21 3 79.0
e 21 312 26.0
e 21 89 55.0
e 21 169 42.0
e 21 152 56.0
e 21 187 99.0
e 21 250 26.0
e 21 261 15.0
e 21 286 76.0
e 21 192 95.0
e 21 121 73.0
e 21 199 75.0
e 21 244 13.0
e 21 212 65.0
e 21 295 34.0
e 21 48 86.0
e 21 106 28.0
e 21 206 30.0
e 21 275 88.0
e 21 219 35.0
e 21 272 82.0
e 21 107 14.0
e 21 185 14.0
e 22 8 24.0
e 24 210 1.0
e 25 181 2.0
e 25 68 5.0
e 26 216 3.0
e 26 5 3.0
e 27 265 73.0
e 29 175 1.0
e 31 294 3.0
e 31 81 1.0
e 32 235 1.0
e 33 81 5.0
e 34 198 16.0
e 34 50 97.0
e 34 305 85.0
e 34 97 28.0
e 34 40 28.0
e 34 312 91.0
e 34 67 93.0
e 34 207 93.0
e 34 294 73.0
e 34 52 32.0
e 34 199 50.0
e 34 23 84.0
e 34 290 55.0
e 34 252 9.0
e 34 7 60.0
e 34 37 44.0
e 34 230 20.0
e 34 274 70.0
e 34 191 37.0
e 34 8 49.0
e 34 269 67.0
e 34 131 38.0
e 34 302 44.0
e 34 9 5.0
e 34 263 99.0
e 34 309 29.0
e 35 245 6.0
e 35 106 1.0
e 36 213 45.0
e 36 205 38.0
e 36 155 97.0
e 36 225 1.0
e 36 137 27.0
e 36 108 65.0
e 36 34 50.0
e 36 219 6.0
e 36 79 48.0
e 36 132 27.0
e 36 209 3.0
e 36 97 48.0
e 36 251 23.0
e 36 288 34.0
e 41 219 19.0
e 41 242 14.0
e 41 300 8.0
e 41 137 2.0
e 41 311 8.0
e 41 59 29.0
e 41 71 6.0
e 43 44 45.0
e 44 122 61.0
e 44 187 65.0
e 44 276 37.0
e 44 258 18.0
e 44 115 92.0
e 44 119 53.0
e 44 299 19.0
e 44 194 28.0
e 44 225 22.0
e 44 96 68.0
e 44 105 70.0
e 44 211 82.0
e 44 33 58.0
e 44 262 58.0
e 44 6 6.0
e 44 110 19.0
e 44 111 4.0
e 44 159 19.0
e 44 120 53.0
e 44 14 63.0
e 44 45 1.0
e 44 49 71.0
e 44 121 8.0
e 44 296 63.0
e 44 123 93.0
e 46 47 12.0
e 47 88 89.0
e 47 279 53.0
e 47 280 62.0
e 47 273 61.0
e 47 35 55.0
e 47 123 71.0
e 47 84 59.0
e 47 162 14.0
e 47 168 15.0
e 47 8 66.0
e 47 22 30.0
e 47 68 31.0
e 47 28 59.0
e 47 297 39.0
e 47 85 88.0
e 47 57 96.0
e 47 19 16.0
e 47 72 46.0
e 47 224 67.0
e 47 190 81.0
e 47 222 63.0
e 47 27 77.0
e 47 143 98.0
e 47 2 57.0
e 47 229 70.0
e 47 207 91.0
e 50 221 31.0
e 50 156 80.0
e 50 8 21.0
e 50 275 50.0
e 50 241 85.0
e 50 101 40.0
e 50 286 100.0
e 50 215 61.0
e 50 232 10.0
e 50 223 28.0
e 50 315 84.0
e 50 131 77.0
e 50 180 36.0
e 50 9 75.0
e 50 259 56.0
e 50 3 94.0
e 50 246 31.0
e 50 186 21.0
e 50 31 12.0
e 50 94 50.0
e 50 176 6.0
e 50 155 52.0
e 50 182 74.0
e 50 24 1.0
e 50 120 41.0
e 50 220 8.0
e 51 242 72.0
e 51 220 24.0
e 51 14 78.0
e 51 272 21.0
e 51 133 11.0
e 51 92 68.0
e 51 190 6.0
e 51 129 64.0
e 51 148 30.0
e 51 11 36.0
e 51 284 64.0
e 51 251 40.0
e 51 77 60.0
e 51 222 7.0
e 51 149 54.0
e 51 161 37.0
e 51 43 22.0
e 51 49 65.0
e 51 213 61.0
e 51 79 3.0
e 51 8 75.0
e 51 135 73.0
e 51 146 15.0
e 51 62 65.0
e 51 7 67.0
e 52 20 4.0
e 53 60 1.0
e 53 84 11.0
e 53 8 84.0
e 55 5 3.0
e 57 308 94.0
e 57 184 42.0
e 57 215 78.0
e 57 237 64.0
e 57 132 27.0
e 57 163 78.0
e 57 148 26.0
e 57 224 90.0
e 57 122 38.0
e 57 243 97.0
e 57 304 63.0
e 57 197 35.0
e 57 257 20.0
e 57 174 81.0
e 57 140 93.0
e 57 250 77.0
e 57 227 75.0
e 57 266 6.0
e 57 136 45.0
e 57 201 13.0
e 57 98 2.0
e 57 213 1.0
e 57 260 92.0
e 57 87 57.0
e 57 272 32.0
e 57 180 47.0
e 58 108 62.0
e 58 104 1.0
e 59 225 26.0
e 59 87 72.0
e 59 63 36.0
e 59 117 14.0
e 59 46 34.0
e 59 184 42.0
e 59 240 91.0
e 59 233 17.0
e 59 302 6.0
e 59 111 45.0
e 59 51 79.0
e 59 285 49.0
e 59 187 36.0
e 61 192 25.0
e 61 222 69.0
e 61 231 66.0
e 61 74 36.0
e 61 157 48.0
e 61 96 9.0
e 61 109 80.0
e 61 90 65.0
e 61 34 4.0
e 61 148 42.0
e 61 317 67.0
e 61 226 20.0
e 61 259 86.0
e 61 121 33.0
e 61 318 29.0
e 61 244 3.0
e 61 276 33.0
e 61 150 23.0
e 61 62 37.0
e 61 105 76.0
e 61 22 97.0
e 61 106 59.0
e 61 293 76.0
e 61 181 3.0
e 61 271 54.0
e 61 91 53.0
e 62 258 79.0
e 62 85 85.0
e 62 10 62.0
e 62 205 50.0
e 62 286 22.0
e 62 230 49.0
e 62 181 11.0
e 62 65 84.0
e 62 94 61.0
e 62 249 98.0
e 62 228 72.0
e 62 239 68.0
e 62 176 87.0
e 62 169 99.0
e 62 56 65.0
e 62 201 62.0
e 62 52 52.0
e 62 29 86.0
e 62 300 47.0
e 62 186 37.0
e 62 71 24.0
e 62 202 67.0
e 62 107 56.0
e 62 93 85.0
e 66 26 2.0
e 69 257 3.0
e 69 307 6.0
e 72 100 5.0
e 73 132 3.0
e 73 241 3.0
e 73 105 3.0
e 74 278 10.0
e 74 133 27.0
e 74 108 46.0
e 74 174 1.0
e 74 191 63.0
e 74 311 47.0
e 74 210 14.0
e 74 246 26.0
e 74 166 14.0
e 74 90 52.0
e 74 206 51.0
e 74 46 57.0
e 74 89 75.0
e 74 171 77.0
e 74 13 20.0
e 74 163 81.0
e 74 205 71.0
e 74 162 18.0
e 74 95 38.0
e 74 160 66.0
e 74 176 85.0
e 74 105 35.0
e 74 14 31.0
e 74 25 54.0
e 74 135 43.0
e 75 295 3.0
e 75 210 5.0
e 76 56 2.0
e 78 170 2.0
e 80 290 5.0
e 82 180 2.0
e 85 172 5.0
e 87 150 86.0
e 87 177 69.0
e 87 315 64.0
e 87 314 43.0
e 87 2 51.0
e 87 100 28.0
e 87 191 65.0
e 87 310 11.0
e 87 275 91.0
e 87 210 34.0
e 87 126 82.0
e 87 132 91.0
e 87 288 3.0
e 87 234 12.0
e 87 71 65.0
e 87 127 7.0
e 87 244 41.0
e 87 171 16.0
e 87 266 59.0
e 87 1 26.0
e 87 174 41.0
e 87 212 48.0
e 87 138 7.0
e 87 238 42.0
e 87 131 94.0
e 90 231 20.0
e 90 128 4.0
e 93 166 17.0
e 96 116 21.0
e 96 310 23.0
e 96 258 2.0
e 97 238 100.0
e 97 225 31.0
e 97 78 96.0
e 97 215 18.0
e 97 167 23.0
e 97 143 42.0
e 97 285 77.0
e 97 28 37.0
e 97 72 29.0
e 97 111 20.0
e 97 214 6.0
e 97 299 73.0
e 97 141 30.0
e 97 248 39.0
e 97 101 78.0
e 97 184 81.0
e 97 261 45.0
e 97 150 26.0
e 97 77 88.0
e 97 5 33.0
e 97 301 62.0
e 97 0 17.0
e 97 73 52.0
e 97 130 29.0
e 99 196 59.0
e 102 124 1.0
e 104 1 3.0
e 108 83 13.0
e 108 204 95.0
e 108 16 29.0
e 108 133 13.0
e 108 155 43.0
e 108 307 85.0
e 108 280 67.0
e 108 309 95.0
e 108 13 5.0
e 108 59 8.0
e 108 244 64.0
e 108 255 7.0
e 108 195 49.0
e 108 269 59.0
e 108 51 4.0
e 108 191 43.0
e 108 175 89.0
e 108 154 50.0
e 108 89 55.0
e 108 246 31.0
e 108 150 92.0
e 108 235 33.0
e 108 136 40.0
e 108 140 59.0
e 109 267 5.0
e 110 257 11.0
e 110 241 1.0
e 110 121 1.0
e 112 284 1.0
e 113 286 1.0
e 115 102 2.0
e 117 315 8.0
e 117 153 5.0
e 117 235 8.0
e 118 266 1.0
e 120 173 67.0
e 120 142 22.0
e 120 206 53.0
e 120 176 21.0
e 120 312 79.0
e 120 224 65.0
e 120 52 78.0
e 120 201 71.0
e 120 128 98.0
e 120 197 45.0
e 120 61 80.0
e 120 170 5.0
e 120 252 11.0
e 120 49 49.0
e 120 200 33.0
e 120 57 66.0
e 120 278 66.0
e 120 2 48.0
e 120 95 39.0
e 120 97 76.0
e 120 262 51.0
e 120 213 69.0
e 120 281 87.0
e 120 66 60.0
e 125 306 1.0
e 125 195 1.0
e 125 29 12.0
e 125 111 11.0
e 130 196 49.0
e 134 45 4.0
e 134 288 1.0
e 134 268 6.0
e 136 293 49.0
e 136 107 6.0
e 139 63 2.0
e 140 266 6.0
e 140 292 31.0
e 145 256 21.0
e 145 282 6.0
e 145 31 17.0
e 145 200 24.0
e 145 131 1.0
e 146 118 20.0
e 146 22 14.0
e 146 156 20.0
e 146 295 5.0
e 147 255 61.0
e 149 163 1.0
e 151 46 1.0
e 151 9 1.0
e 153 254 4.0
e 154 68 2.0
e 155 193 17.0
e 155 203 56.0
e 155 217 36.0
e 155 308 82.0
e 155 153 10.0
e 155 27 69.0
e 155 176 23.0
e 155 237 77.0
e 155 99 47.0
e 155 77 43.0
e 155 292 98.0
e 155 171 66.0
e 155 15 89.0
e 155 211 39.0
e 155 276 53.0
e 155 200 12.0
e 155 300 49.0
e 155 158 34.0
e 155 102 8.0
e 155 238 83.0
e 155 143 56.0
e 155 259 11.0
e 155 151 78.0
e 158 197 9.0
e 158 95 11.0
e 158 162 1.0
e 164 134 7.0
e 165 81 5.0
e 165 227 5.0
e 166 56 16.0
e 166 194 2.0
e 166 303 15.0
e 166 195 20.0
e 166 50 39.0
e 167 297 20.0
e 167 23 27.0
e 167 19 6.0
e 167 277 56.0
e 167 45 94.0
e 167 203 43.0
e 167 302 99.0
e 167 199 94.0
e 167 204 3.0
e 167 303 2.0
e 167 261 42.0
e 167 149 50.0
e 167 255 41.0
e 167 267 51.0
e 167 177 61.0
e 167 164 70.0
e 167 123 46.0
e 167 59 12.0
e 167 136 6.0
e 167 225 22.0
e 167 132 6.0
e 167 152 12.0
e 167 38 52.0
e 167 71 97.0
e 167 14 82.0
e 167 12 83.0
e 168 312 10.0
e 173 150 23.0
e 173 161 10.0
e 173 288 23.0
e 173 297 40.0
e 173 264 1.0
e 173 163 5.0
e 174 19 2.0
e 177 228 55.0
e 177 117 28.0
e 177 234 1.0
e 177 101 39.0
e 177 58 39.0
e 177 148 27.0
e 177 66 89.0
e 177 40 90.0
e 177 282 31.0
e 177 257 58.0
e 177 149 84.0
e 177 182 16.0
e 177 178 57.0
e 177 6 39.0
e 177 71 73.0
e 177 132 60.0
e 177 166 48.0
e 177 318 1.0
e 177 297 6.0
e 177 254 19.0
e 177 112 17.0
e 177 68 14.0
e 177 69 77.0
e 177 315 50.0
e 177 114 94.0
e 178 90 4.0
e 179 302 2.0
e 183 29 2.0
e 188 2 5.0
e 188 162 4.0
e 192 279 9.0
e 192 191 81.0
e 192 144 23.0
e 192 183 43.0
e 192 261 50.0
e 192 224 98.0
e 192 215 63.0
e 192 315 89.0
e 192 165 1.0
e 192 4 79.0
e 192 280 50.0
e 192 32 34.0
e 192 70 79.0
e 192 111 75.0
e 192 10 98.0
e 192 268 75.0
e 192 298 33.0
e 192 286 74.0
e 192 193 42.0
e 192 44 34.0
e 192 167 23.0
e 192 313 6.0
e 192 82 27.0
e 196 301 26.0
e 196 4 30.0
e 196 82 91.0
e 196 166 24.0
e 196 145 11.0
e 196 25 62.0
e 196 279 60.0
e 196 89 95.0
e 196 230 11.0
e 196 168 87.0
e 196 312 67.0
e 196 107 42.0
e 196 114 85.0
e 196 197 61.0
e 196 1 89.0
e 196 15 75.0
e 196 242 71.0
e 196 151 45.0
e 196 184 31.0
e 196 146 28.0
e 196 10 21.0
e 196 295 15.0
e 196 63 68.0
e 196 262 36.0
e 196 318 50.0
e 203 267 22.0
e 203 173 12.0
e 203 285 4.0
e 203 236 13.0
e 203 292 13.0
e 204 205 87.0
e 204 299 39.0
e 204 185 43.0
e 204 273 39.0
e 204 118 46.0
e 204 105 17.0
e 204 50 19.0
e 204 131 35.0
e 204 127 44.0
e 204 308 49.0
e 205 183 52.0
e 205 290 26.0
e 205 151 80.0
e 205 133 75.0
e 205 318 87.0
e 205 298 14.0
e 205 61 33.0
e 205 106 95.0
e 205 25 89.0
e 205 68 96.0
e 205 2 98.0
e 205 190 45.0
e 205 315 12.0
e 205 16 46.0
e 205 269 41.0
e 205 11 70.0
e 205 107 15.0
e 205 161 2.0
e 205 317 34.0
e 205 140 95.0
e 205 24 21.0
e 205 39 60.0
e 205 279 34.0
e 208 30 7.0
e 208 250 6.0
e 208 280 9.0
e 208 291 1.0
e 211 88 11.0
e 211 86 7.0
e 212 159 6.0
e 212 147 33.0
e 212 231 78.0
e 212 109 14.0
e 212 107 32.0
e 212 300 28.0
e 212 285 36.0
e 212 83 17.0
e 212 193 4.0
e 212 29 22.0
e 212 273 21.0
e 212 142 26.0
e 216 33 3.0
e 216 63 2.0
e 225 213 11.0
e 225 98 17.0
e 229 263 20.0
e 229 247 13.0
e 229 212 4.0
e 229 220 13.0
e 229 21 43.0
e 229 62 27.0
e 229 163 17.0
e 229 204 25.0
e 229 205 48.0
e 229 130 5.0
e 229 143 48.0
e 229 218 34.0
e 229 7 43.0
e 231 18 59.0
e 231 2 92.0
e 231 244 54.0
e 231 309 45.0
e 231 33 37.0
e 231 138 66.0
e 231 186 5.0
e 231 241 58.0
e 231 74 49.0
e 231 60 38.0
e 231 258 11.0
e 231 193 99.0
e 231 275 14.0
e 231 200 5.0
e 231 128 1.0
e 231 214 6.0
e 231 290 66.0
e 231 150 84.0
e 231 253 74.0
e 231 172 78.0
e 231 228 86.0
e 231 98 37.0
e 231 169 22.0
e 231 163 78.0
e 233 197 6.0
e 234 231 93.0
e 234 318 83.0
e 236 108 50.0
e 237 30 96.0
e 237 297 18.0
e 237 82 46.0
e 237 313 19.0
e 237 124 57.0
e 237 204 31.0
e 237 206 1.0
e 237 300 41.0
e 237 66 40.0
e 237 161 100.0
e 237 83 63.0
e 237 49 16.0
e 237 76 82.0
e 237 296 63.0
e 237 223 74.0
e 237 134 44.0
e 237 39 14.0
e 237 40 13.0
e 237 4 80.0
e 237 17 90.0
e 237 84 23.0
e 237 213 14.0
e 237 9 43.0
e 237 67 71.0
e 237 95 74.0
e 238 84 19.0
e 239 278 84.0
e 240 204 41.0
e 240 223 2.0
e 240 126 22.0
e 240 101 74.0
e 240 134 77.0
e 240 87 90.0
e 240 162 12.0
e 240 192 27.0
e 240 55 60.0
e 240 92 83.0
e 240 42 76.0
e 240 296 15.0
e 240 9 40.0
e 240 292 77.0
e 240 224 73.0
e 240 105 38.0
e 240 140 58.0
e 240 220 47.0
e 240 36 51.0
e 240 195 93.0
e 240 43 36.0
e 240 152 100.0
e 240 102 73.0
e 240 180 30.0
e 240 304 81.0
e 240 289 64.0
e 242 176 9.0
e 248 88 9.0
e 248 130 12.0
e 248 55 11.0
e 253 28 4.0
e 253 68 10.0
e 253 240 34.0
e 255 218 72.0
e 255 313 10.0
e 255 264 45.0
e 255 127 34.0
e 255 32 79.0
e 255 48 9.0
e 255 181 36.0
e 255 297 38.0
e 255 293 96.0
e 255 271 59.0
e 255 136 67.0
e 255 254 54.0
e 255 219 80.0
e 255 150 77.0
e 255 23 47.0
e 255 117 72.0
e 255 196 53.0
e 255 299 81.0
e 255 55 35.0
e 255 10 5.0
e 255 115 71.0
e 255 211 81.0
e 255 34 60.0
e 255 158 9.0
e 261 272 43.0
e 261 56 79.0
e 261 63 15.0
e 261 151 83.0
e 261 203 31.0
e 261 183 22.0
e 261 152 45.0
e 261 269 67.0
e 261 313 40.0
e 261 115 15.0
e 261 7 10.0
e 261 65 80.0
e 261 257 35.0
e 261 229 57.0
e 261 303 96.0
e 261 123 56.0
e 261 29 68.0
e 261 260 55.0
e 261 107 91.0
e 261 165 70.0
e 261 48 26.0
e 261 14 57.0
e 261 280 55.0
e 263 181 8.0
e 265 80 100.0
e 265 237 52.0
e 265 101 25.0
e 265 117 86.0
e 265 294 12.0
e 265 16 66.0
e 265 79 19.0
e 265 312 40.0
e 265 88 78.0
e 265 168 58.0
e 265 146 45.0
e 265 59 71.0
e 265 214 77.0
e 265 243 76.0
e 265 206 34.0
e 265 98 70.0
e 265 280 99.0
e 265 301 79.0
e 265 32 38.0
e 265 82 81.0
e 265 81 32.0
e 265 19 29.0
e 265 25 79.0
e 265 181 39.0
e 265 31 30.0
e 268 47 39.0
e 269 73 66.0
e 269 295 51.0
e 269 91 27.0
e 269 266 76.0
e 269 133 38.0
e 269 92 53.0
e 269 284 62.0
e 269 86 64.0
e 269 30 22.0
e 269 275 100.0
e 269 181 80.0
e 269 140 24.0
e 269 263 46.0
e 269 15 54.0
e 269 110 65.0
e 269 223 79.0
e 269 273 5.0
e 269 268 15.0
e 269 77 95.0
e 269 148 77.0
e 269 125 42.0
e 269 52 54.0
e 270 275 79.0
e 270 294 7.0
e 270 147 37.0
e 270 5 52.0
e 270 113 74.0
e 270 98 50.0
e 270 195 98.0
e 270 271 28.0
e 270 122 2.0
e 270 278 49.0
e 270 51 57.0
e 270 106 86.0
e 270 31 41.0
e 270 274 15.0
e 270 85 49.0
e 270 76 45.0
e 270 169 18.0
e 270 149 8.0
e 270 262 75.0
e 270 236 19.0
e 270 77 42.0
e 270 116 4.0
e 270 140 45.0
e 270 286 89.0
e 270 21 68.0
e 270 32 11.0
e 270 108 49.0
e 271 44 92.0
e 274 83 12.0
e 274 142 88.0
e 274 128 14.0
e 274 214 41.0
e 274 68 11.0
e 274 204 44.0
e 274 255 82.0
e 274 157 95.0
e 274 65 91.0
e 274 119 67.0
e 274 120 66.0
e 274 187 79.0
e 274 285 4.0
e 274 283 29.0
e 274 304 17.0
e 274 148 97.0
e 274 173 24.0
e 274 259 70.0
e 274 89 23.0
e 274 55 51.0
e 274 160 1.0
e 274 277 93.0
e 274 125 24.0
e 274 179 34.0
e 278 102 12.0
e 278 51 100.0
e 278 185 67.0
e 278 66 21.0
e 278 23 75.0
e 278 225 43.0
e 278 41 54.0
e 278 247 50.0
e 278 271 9.0
e 278 33 62.0
e 278 308 57.0
e 278 290 55.0
e 278 184 34.0
e 278 161 52.0
e 278 76 56.0
e 278 299 79.0
e 278 11 77.0
e 278 228 39.0
e 278 29 89.0
e 278 272 57.0
e 278 298 29.0
e 278 220 67.0
e 287 161 2.0
e 292 287 43.0
e 292 108 18.0
e 292 261 1.0
e 292 124 42.0
e 292 274 99.0
e 292 266 14.0
e 292 262 46.0
e 292 286 23.0
e 292 48 37.0
e 292 297 61.0
e 293 229 47.0
e 293 292 5.0
e 293 5 34.0
e 293 44 65.0
e 293 301 34.0
e 293 66 3.0
e 293 267 32.0
e 293 74 77.0
e 293 268 18.0
e 293 18 2.0
e 293 27 38.0
e 297 54 49.0
e 297 316 65.0
e 297 21 40.0
e 297 250 71.0
e 297 55 82.0
e 297 176 57.0
e 297 61 66.0
e 297 202 14.0
e 297 99 57.0
e 297 170 34.0
e 297 88 92.0
e 297 199 20.0
e 297 225 16.0
e 297 273 23.0
e 297 160 100.0
e 297 158 94.0
e 297 95 10.0
e 297 112 37.0
e 297 231 3.0
e 297 128 81.0
e 304 291 22.0
e 304 104 86.0
e 304 65 95.0
e 304 246 25.0
e 304 204 6.0
e 304 223 15.0
e 304 151 6.0
e 304 306 78.0
e 304 318 97.0
e 304 183 56.0
e 304 85 55.0
e 304 222 82.0
e 304 280 36.0
e 304 272 13.0
e 304 273 99.0
e 304 31 60.0
e 304 296 93.0
e 304 28 38.0
e 304 139 22.0
e 304 34 32.0
e 304 7 27.0
e 304 224 78.0
e 305 61 3.0
e 305 146 24.0
e 307 195 9.0
e 307 277 7.0
e 309 158 31.0
e 309 274 25.0
e 309 74 29.0
e 309 182 68.0
e 309 217 78.0
e 309 48 22.0
e 309 261 35.0
e 309 3 61.0
e 309 208 23.0
e 309 195 75.0
e 309 123 100.0
e 309 282 90.0
e 309 289 1.0
e 309 290 83.0
e 309 299 41.0
e 309 95 30.0
e 309 62 37.0
e 309 171 79.0
e 309 31 41.0
e 309 27 95.0
e 309 162 24.0
e 309 312 4.0
e 309 28 74.0
e 309 250 25.0
e 311 211 5.0
e 311 135 5.0
e 311 84 20.0
e 311 75 24.0
e 314 106 6.0
e 318 214 49.0
e 318 93 23.0
e 318 50 67.0
e 318 87 81.0
e 318 49 98.0
e 318 85 85.0
e 318 306 35.0
e 318 290 48.0
e 318 182 25.0
e 318 178 95.0
e 318 84 9.0
e 318 94 53.0
e 318 146 84.0
e 318 32 87.0
e 318 271 26.0
e 318 62 27.0
e 318 175 23.0
e 318 284 24.0
e 318 240 4.0
e 318 30 26.0
e 318 273 51.0
e 319 123 2.0
